BCC Fe supercell (2x2x2)
1.0
  5.7400000000  0.0000000000  0.0000000000
  0.0000000000  5.7400000000  0.0000000000
  0.0000000000  0.0000000000  5.7400000000
Fe  
16
Direct
  0.0000000000  0.0000000000  0.0000000000
  0.2500000000  0.2500000000  0.2500000000
  0.0000000000  0.0000000000  0.5000000000
  0.2500000000  0.2500000000  0.7500000000
  0.0000000000  0.5000000000  0.0000000000
  0.2500000000  0.7500000000  0.2500000000
  0.0000000000  0.5000000000  0.5000000000
  0.2500000000  0.7500000000  0.7500000000
  0.5000000000  0.0000000000  0.0000000000
  0.7500000000  0.2500000000  0.2500000000
  0.5000000000  0.0000000000  0.5000000000
  0.7500000000  0.2500000000  0.7500000000
  0.5000000000  0.5000000000  0.0000000000
  0.7500000000  0.7500000000  0.2500000000
  0.5000000000  0.5000000000  0.5000000000
  0.7500000000  0.7500000000  0.7500000000
