# 1. Initialization - NVE, NVT 
# --------------------------------------------------
units lj                                             #  lk - reduced units
dimension     3                                 # simulation is conducted in 3D (another example is 2D)
atom_style  atomic                          # designates the atomic style for representing simple particles
boundary     p p p                             # boundary conditions for x, y,  and z. p =periodic, f =is non-periodic and fixed, s is non-periodic and shrink-wrapped, m is non-periodic and shrink-wrapped with a minimum value



# 2. System definition
# -------------------------------------------------
region box1 block -30 30   -30  30  -30 30    # creating a cubic/rectangular box from -30 to 30 units in all 3 spatial directions
create_box 2  box1                                 # Initializes a simulation box based on the region box1 and reserves space for two types of particles.
create_atoms 1 random 1200 12338 box1 overlap 0.3   # generate N particles of type 1  at random  positions, seeder, min distance b/n particles
create_atoms 2 random 500 55338 box1 overlap 0.3


# 3. Settings
#--------------------------------------------
mass 1 1.0                                # mass of particle 1, to be 1.0
mass 2 4.0
pair_style lj/cut 4.0                 # specifies that the atoms will interact using lennard-Jones potentials
pair_coeff 1 1 1.0 1.0                # interacting with self (type 1)  depth of potential 0.1, distance is 1.0
pair_coeff 2 2 0.6 3.0
#pair_coeff 1 2 

# 4. Monitoring
#--------------------------------------------
thermo 10
thermo_style custom step etotal ke pe 


# 5. Run
#-----------------------------------
#a.
run 0 


#b.
minimize 1.0e-6 1.0e-6 1000 100000



#=====================
#  MD
#==================

#4. Monitoring
#--------------------------------------------------
thermo 50 
thermo_style custom step temp etotal pe ke press

#dump somedump all atom 100 dump.lammpstrj

dump viz all image 100 data/myimage-*.ppm type type size 600 600 zoom 1.21 shiny 0.6 fsaa yes view 60 30 box yes 0.025 axes no 0.0 0.0 center s 0.49901 0.4914 0.5028
dump_modify viz pad 9 boxcolor yellow backcolor black adiam 1 1.6 adiam 2 4.8


# 5. Run
#-----------------------------------
fix somenve all nve    # nve simulation, where fix means updating all positions and velocities
fix somelgv all langevin 1.0 1.0 0.1  13430
timestep 0.005
run 15000


































